\ENCODING=ISO-8859-1
\Problem name: ilog.cplex

Minimize
 obj1: 109878 x1 + 91042 x2 + 108397 x3 + 90516 x4 + 91066 x5 + 95634 x6
       + 90808 x7 + 105606 x8 + 97497 x9 + 100008 x10 + 102210 x11 + 90085 x12
       + 106413 x13 + 95074 x14 + 94201 x15 + 107317 x16 + 103528 x17
       + 102951 x18 + 92832 x19 + 92000 x20 + 101849 x21 + 92891 x22
       + 91626 x23 + 107037 x24 + 108812 x25 + 104787 x26 + 95806 x27
       + 105810 x28 + 101774 x29 + 105991 x30 + 103241 x31 + 105831 x32
       + 108021 x33 + 109074 x34 + 96564 x35 + 106954 x36 + 92174 x37
       + 95657 x38 + 90457 x39 + 100160 x40 + 91254 x41 + 104606 x42
       + 108262 x43 + 91371 x44 + 105643 x45 + 91648 x46 + 92903 x47
       + 108858 x48 + 92802 x49 + 91860 x50 + 108512 x51 + 92497 x52
       + 99841 x53 + 96496 x54 + 101197 x55 + 98453 x56 + 90891 x57 + 91271 x58
       + 100096 x59 + 93853 x60 + 102564 x61 + 107250 x62 + 100270 x63
       + 105727 x64 + 95418 x65 + 106949 x66 + 94747 x67 + 105717 x68
       + 96055 x69 + 100313 x70 + 91052 x71 + 91948 x72 + 96997 x73 + 96528 x74
       + 102931 x75 + 101036 x76 + 109669 x77 + 90906 x78 + 106016 x79
       + 102235 x80 + 106785 x81 + 102493 x82 + 100908 x83 + 107874 x84
       + 95825 x85 + 104220 x86 + 92837 x87 + 104395 x88 + 108334 x89
       + 98455 x90 + 98947 x91 + 107309 x92 + 101300 x93 + 96920 x94
       + 106123 x95 + 102326 x96 + 104122 x97 + 100668 x98 + 109839 x99
       + 94483 x100 + 107484 x101 + 103210 x102 + 107605 x103 + 107222 x104
       + 98919 x105 + 97815 x106 + 99397 x107 + 94244 x108 + 103920 x109
       + 98682 x110 + 101821 x111 + 108302 x112 + 91177 x113 + 104872 x114
       + 92804 x115 + 93233 x116 + 105832 x117 + 105775 x118 + 109236 x119
       + 108140 x120 + 95973 x121 + 91336 x122 + 109677 x123 + 103766 x124
       + 92671 x125 + 105258 x126 + 107413 x127 + 98333 x128 + 97566 x129
       + 99047 x130 + 98496 x131 + 106643 x132 + 90960 x133 + 106008 x134
       + 107682 x135 + 100621 x136 + 90546 x137 + 91782 x138 + 106525 x139
       + 93589 x140 + 104799 x141 + 102151 x142 + 94922 x143 + 91917 x144
       + 108497 x145 + 97056 x146 + 104438 x147 + 97238 x148 + 93223 x149
       + 95803 x150 + 109071 x151 + 95598 x152 + 93984 x153 + 100086 x154
       + 105233 x155 + 91772 x156 + 102016 x157 + 108616 x158 + 109463 x159
       + 104524 x160 + 103400 x161 + 109992 x162 + 99758 x163 + 91717 x164
       + 93282 x165 + 98915 x166 + 94386 x167 + 102959 x168 + 106290 x169
       + 104912 x170 + 100651 x171 + 101853 x172 + 95173 x173 + 92460 x174
       + 95354 x175 + 99957 x176 + 101739 x177 + 106721 x178 + 98508 x179
       + 100186 x180 + 98669 x181 + 99402 x182 + 101075 x183 + 99128 x184
       + 100957 x185 + 98649 x186 + 100191 x187 + 101687 x188 + 91022 x189
       + 97751 x190 + 103454 x191 + 95642 x192 + 109602 x193 + 92896 x194
       + 109930 x195 + 91906 x196 + 92224 x197 + 97113 x198 + 96945 x199
       + 94370 x200 + 106660 x201 + 94819 x202 + 92245 x203 + 90547 x204
       + 94542 x205 + 90090 x206 + 92431 x207 + 98228 x208 + 102548 x209
       + 109273 x210 + 93003 x211 + 106610 x212 + 104821 x213 + 96929 x214
       + 106920 x215 + 96506 x216 + 90176 x217 + 102969 x218 + 105798 x219
       + 100944 x220 + 95183 x221 + 98418 x222 + 100690 x223 + 94864 x224
       + 107343 x225 + 97421 x226 + 107850 x227 + 100588 x228 + 101358 x229
       + 103896 x230 + 98980 x231 + 104352 x232 + 105876 x233 + 102663 x234
       + 95150 x235 + 98437 x236 + 108121 x237 + 96948 x238 + 108907 x239
       + 93297 x240 + 104555 x241 + 106255 x242 + 106365 x243 + 107323 x244
       + 90882 x245 + 107130 x246 + 101569 x247 + 99689 x248 + 100473 x249
       + 90530 x250 + 94946 x251 + 100320 x252 + 96239 x253 + 94312 x254
       + 108724 x255 + 107841 x256 + 92789 x257 + 93113 x258 + 103723 x259
       + 100071 x260 + 91898 x261 + 98485 x262 + 97737 x263 + 109434 x264
       + 107414 x265 + 91900 x266 + 94182 x267 + 109727 x268 + 105397 x269
       + 91298 x270 + 109499 x271 + 99898 x272 + 90770 x273 + 98191 x274
       + 96066 x275 + 92060 x276 + 107909 x277 + 94163 x278 + 106321 x279
       + 98159 x280 + 109287 x281 + 93183 x282 + 93332 x283 + 102564 x284
       + 103694 x285 + 109257 x286 + 93248 x287 + 106299 x288 + 103521 x289
       + 107721 x290 + 105836 x291 + 92710 x292 + 109209 x293 + 92891 x294
       + 100769 x295 + 94087 x296 + 98216 x297 + 104769 x298 + 109340 x299
       + 69110 x300 + 20179 x301 + 19971 x302 + 18984 x303 + 18809 x304
       + 20912 x305 + 18596 x306 + 21362 x307 + 18671 x308 + 20362 x309
       + 21642 x310 + 18324 x311 + 20035 x312 + 20252 x313 + 21399 x314
       + 19943 x315 + 19916 x316 + 21471 x317 + 21047 x318 + 19548 x319
       + 21770 x320 + 20868 x321 + 19036 x322 + 18618 x323 + 21658 x324
       + 18012 x325 + 21772 x326 + 19716 x327 + 19166 x328 + 18755 x329
       + 20346 x330 + 19041 x331 + 19422 x332 + 20851 x333 + 18378 x334
       + 18833 x335 + 20616 x336 + 18618 x337 + 19779 x338 + 19742 x339
       + 21825 x340 + 20766 x341 + 21343 x342 + 20622 x343 + 18728 x344
       + 18009 x345 + 21517 x346 + 19888 x347 + 19964 x348 + 20985 x349
       + 21598 x350 + 18651 x351 + 18416 x352 + 18214 x353 + 18776 x354
       + 19277 x355 + 21619 x356 + 18509 x357 + 20077 x358 + 21839 x359
       + 22957 x360
Subject To
 c1:   - x1 - x2 - x8 - x21 + x23 + x31 + x34 - x36 + x37 + x41 - x52 + x53
        = 0
 c2:   - x61 - x62 - x68 - x81 + x83 + x91 + x94 - x96 + x97 + x101 - x112
       + x113  = 0
 c3:   - x121 - x122 - x128 - x141 + x143 + x151 + x154 - x156 + x157 + x161
       - x172 + x173  = 0
 c4:   - x181 - x182 - x188 - x201 + x203 + x211 + x214 - x216 + x217 + x221
       - x232 + x233  = 0
 c5:   - x241 - x242 - x248 - x261 + x263 + x271 + x274 - x276 + x277 + x281
       - x292 + x293  = -1
 c6:   x2 - x5 - x11 + x24 - x25 - x28 - x32 + x35 + x45 + x49 - x53 - x55  = 0
 c7:   x62 - x65 - x71 + x84 - x85 - x88 - x92 + x95 + x105 + x109 - x113
       - x115  = -1
 c8:   x122 - x125 - x131 + x144 - x145 - x148 - x152 + x155 + x165 + x169
       - x173 - x175  = 0
 c9:   x182 - x185 - x191 + x204 - x205 - x208 - x212 + x215 + x225 + x229
       - x233 - x235  = -1
 c10:  x242 - x245 - x251 + x264 - x265 - x268 - x272 + x275 + x285 + x289
       - x293 - x295  = 0
 c11:  - x9 - x12 + x14 - x15 - x23 + x26 + x28 - x33 + x43 - x49 + x58  = 0
 c12:  - x69 - x72 + x74 - x75 - x83 + x86 + x88 - x93 + x103 - x109 + x118
        = 1
 c13:  - x129 - x132 + x134 - x135 - x143 + x146 + x148 - x153 + x163 - x169
       + x178  = 0
 c14:  - x189 - x192 + x194 - x195 - x203 + x206 + x208 - x213 + x223 - x229
       + x238  = 0
 c15:  - x249 - x252 + x254 - x255 - x263 + x266 + x268 - x273 + x283 - x289
       + x298  = 0
 c16:  - x3 + x5 - x10 + x18 + x27 + x29 + x38 - x43 - x44 - x46 + x47 + x52
       - x54 + x56  = -1
 c17:  - x63 + x65 - x70 + x78 + x87 + x89 + x98 - x103 - x104 - x106 + x107
       + x112 - x114 + x116  = 0
 c18:  - x123 + x125 - x130 + x138 + x147 + x149 + x158 - x163 - x164 - x166
       + x167 + x172 - x174 + x176  = 0
 c19:  - x183 + x185 - x190 + x198 + x207 + x209 + x218 - x223 - x224 - x226
       + x227 + x232 - x234 + x236  = 0
 c20:  - x243 + x245 - x250 + x258 + x267 + x269 + x278 - x283 - x284 - x286
       + x287 + x292 - x294 + x296  = 1
 c21:  x4 + x6 - x7 - x13 + x25 - x27 + x33 - x37 + x44 + x50 - x58 - x59 + x60
        = 1
 c22:  x64 + x66 - x67 - x73 + x85 - x87 + x93 - x97 + x104 + x110 - x118
       - x119 + x120  = 0
 c23:  x124 + x126 - x127 - x133 + x145 - x147 + x153 - x157 + x164 + x170
       - x178 - x179 + x180  = 0
 c24:  x184 + x186 - x187 - x193 + x205 - x207 + x213 - x217 + x224 + x230
       - x238 - x239 + x240  = 0
 c25:  x244 + x246 - x247 - x253 + x265 - x267 + x273 - x277 + x284 + x290
       - x298 - x299 + x300  = 0
 c26:  x7 + x8 + x10 + x11 - x22 - x30 - x34 + x39 - x40 - x45 - x47 + x48
       + x51 - x60  = 0
 c27:  x67 + x68 + x70 + x71 - x82 - x90 - x94 + x99 - x100 - x105 - x107
       + x108 + x111 - x120  = 0
 c28:  x127 + x128 + x130 + x131 - x142 - x150 - x154 + x159 - x160 - x165
       - x167 + x168 + x171 - x180  = -1
 c29:  x187 + x188 + x190 + x191 - x202 - x210 - x214 + x219 - x220 - x225
       - x227 + x228 + x231 - x240  = 1
 c30:  x247 + x248 + x250 + x251 - x262 - x270 - x274 + x279 - x280 - x285
       - x287 + x288 + x291 - x300  = 0
 c31:  x1 + x15 - x17 + x19 + x20 - x31 - x38 - x50 + x55  = 0
 c32:  x61 + x75 - x77 + x79 + x80 - x91 - x98 - x110 + x115  = 0
 c33:  x121 + x135 - x137 + x139 + x140 - x151 - x158 - x170 + x175  = 0
 c34:  x181 + x195 - x197 + x199 + x200 - x211 - x218 - x230 + x235  = 0
 c35:  x241 + x255 - x257 + x259 + x260 - x271 - x278 - x290 + x295  = 0
 c36:  x3 - x6 + x16 + x17 - x19 + x21 - x24 - x26 + x30 + x42 - x48 - x56  = 0
 c37:  x63 - x66 + x76 + x77 - x79 + x81 - x84 - x86 + x90 + x102 - x108 - x116
        = 0
 c38:  x123 - x126 + x136 + x137 - x139 + x141 - x144 - x146 + x150 + x162
       - x168 - x176  = 0
 c39:  x183 - x186 + x196 + x197 - x199 + x201 - x204 - x206 + x210 + x222
       - x228 - x236  = 0
 c40:  x243 - x246 + x256 + x257 - x259 + x261 - x264 - x266 + x270 + x282
       - x288 - x296  = 0
 c41:  - x4 + x12 - x14 - x16 - x18 - x39 + x40 - x41 + x46 - x57 + x59  = 0
 c42:  - x64 + x72 - x74 - x76 - x78 - x99 + x100 - x101 + x106 - x117 + x119
        = 0
 c43:  - x124 + x132 - x134 - x136 - x138 - x159 + x160 - x161 + x166 - x177
       + x179  = 1
 c44:  - x184 + x192 - x194 - x196 - x198 - x219 + x220 - x221 + x226 - x237
       + x239  = 0
 c45:  - x244 + x252 - x254 - x256 - x258 - x279 + x280 - x281 + x286 - x297
       + x299  = 0
 c46:  x9 + x13 - x20 + x22 - x29 + x32 - x35 + x36 - x42 - x51 + x54 + x57
        = 0
 c47:  x69 + x73 - x80 + x82 - x89 + x92 - x95 + x96 - x102 - x111 + x114
       + x117  = 0
 c48:  x129 + x133 - x140 + x142 - x149 + x152 - x155 + x156 - x162 - x171
       + x174 + x177  = 0
 c49:  x189 + x193 - x200 + x202 - x209 + x212 - x215 + x216 - x222 - x231
       + x234 + x237  = 0
 c50:  x249 + x253 - x260 + x262 - x269 + x272 - x275 + x276 - x282 - x291
       + x294 + x297  = 0
 c51:  4 x1 + 4 x61 + 4 x121 + 4 x181 + 4 x241 - 2 x301 <= 0
 c52:  4 x2 + 4 x62 + 4 x122 + 4 x182 + 4 x242 - 2 x302 <= 0
 c53:  4 x3 + 4 x63 + 4 x123 + 4 x183 + 4 x243 - 2 x303 <= 0
 c54:  4 x4 + 4 x64 + 4 x124 + 4 x184 + 4 x244 - 2 x304 <= 0
 c55:  4 x5 + 4 x65 + 4 x125 + 4 x185 + 4 x245 - 2 x305 <= 0
 c56:  4 x6 + 4 x66 + 4 x126 + 4 x186 + 4 x246 - 2 x306 <= 0
 c57:  4 x7 + 4 x67 + 4 x127 + 4 x187 + 4 x247 - 2 x307 <= 0
 c58:  4 x8 + 4 x68 + 4 x128 + 4 x188 + 4 x248 - 2 x308 <= 0
 c59:  4 x9 + 4 x69 + 4 x129 + 4 x189 + 4 x249 - 2 x309 <= 0
 c60:  4 x10 + 4 x70 + 4 x130 + 4 x190 + 4 x250 - 2 x310 <= 0
 c61:  4 x11 + 4 x71 + 4 x131 + 4 x191 + 4 x251 - 2 x311 <= 0
 c62:  4 x12 + 4 x72 + 4 x132 + 4 x192 + 4 x252 - 2 x312 <= 0
 c63:  4 x13 + 4 x73 + 4 x133 + 4 x193 + 4 x253 - 2 x313 <= 0
 c64:  4 x14 + 4 x74 + 4 x134 + 4 x194 + 4 x254 - 2 x314 <= 0
 c65:  4 x15 + 4 x75 + 4 x135 + 4 x195 + 4 x255 - 2 x315 <= 0
 c66:  4 x16 + 4 x76 + 4 x136 + 4 x196 + 4 x256 - 2 x316 <= 0
 c67:  4 x17 + 4 x77 + 4 x137 + 4 x197 + 4 x257 - 2 x317 <= 0
 c68:  4 x18 + 4 x78 + 4 x138 + 4 x198 + 4 x258 - 2 x318 <= 0
 c69:  4 x19 + 4 x79 + 4 x139 + 4 x199 + 4 x259 - 2 x319 <= 0
 c70:  4 x20 + 4 x80 + 4 x140 + 4 x200 + 4 x260 - 2 x320 <= 0
 c71:  4 x21 + 4 x81 + 4 x141 + 4 x201 + 4 x261 - 2 x321 <= 0
 c72:  4 x22 + 4 x82 + 4 x142 + 4 x202 + 4 x262 - 2 x322 <= 0
 c73:  4 x23 + 4 x83 + 4 x143 + 4 x203 + 4 x263 - 2 x323 <= 0
 c74:  4 x24 + 4 x84 + 4 x144 + 4 x204 + 4 x264 - 2 x324 <= 0
 c75:  4 x25 + 4 x85 + 4 x145 + 4 x205 + 4 x265 - 2 x325 <= 0
 c76:  4 x26 + 4 x86 + 4 x146 + 4 x206 + 4 x266 - 2 x326 <= 0
 c77:  4 x27 + 4 x87 + 4 x147 + 4 x207 + 4 x267 - 2 x327 <= 0
 c78:  4 x28 + 4 x88 + 4 x148 + 4 x208 + 4 x268 - 2 x328 <= 0
 c79:  4 x29 + 4 x89 + 4 x149 + 4 x209 + 4 x269 - 2 x329 <= 0
 c80:  4 x30 + 4 x90 + 4 x150 + 4 x210 + 4 x270 - 2 x330 <= 0
 c81:  4 x31 + 4 x91 + 4 x151 + 4 x211 + 4 x271 - 2 x331 <= 0
 c82:  4 x32 + 4 x92 + 4 x152 + 4 x212 + 4 x272 - 2 x332 <= 0
 c83:  4 x33 + 4 x93 + 4 x153 + 4 x213 + 4 x273 - 2 x333 <= 0
 c84:  4 x34 + 4 x94 + 4 x154 + 4 x214 + 4 x274 - 2 x334 <= 0
 c85:  4 x35 + 4 x95 + 4 x155 + 4 x215 + 4 x275 - 2 x335 <= 0
 c86:  4 x36 + 4 x96 + 4 x156 + 4 x216 + 4 x276 - 2 x336 <= 0
 c87:  4 x37 + 4 x97 + 4 x157 + 4 x217 + 4 x277 - 2 x337 <= 0
 c88:  4 x38 + 4 x98 + 4 x158 + 4 x218 + 4 x278 - 2 x338 <= 0
 c89:  4 x39 + 4 x99 + 4 x159 + 4 x219 + 4 x279 - 2 x339 <= 0
 c90:  4 x40 + 4 x100 + 4 x160 + 4 x220 + 4 x280 - 2 x340 <= 0
 c91:  4 x41 + 4 x101 + 4 x161 + 4 x221 + 4 x281 - 2 x341 <= 0
 c92:  4 x42 + 4 x102 + 4 x162 + 4 x222 + 4 x282 - 2 x342 <= 0
 c93:  4 x43 + 4 x103 + 4 x163 + 4 x223 + 4 x283 - 2 x343 <= 0
 c94:  4 x44 + 4 x104 + 4 x164 + 4 x224 + 4 x284 - 2 x344 <= 0
 c95:  4 x45 + 4 x105 + 4 x165 + 4 x225 + 4 x285 - 2 x345 <= 0
 c96:  4 x46 + 4 x106 + 4 x166 + 4 x226 + 4 x286 - 2 x346 <= 0
 c97:  4 x47 + 4 x107 + 4 x167 + 4 x227 + 4 x287 - 2 x347 <= 0
 c98:  4 x48 + 4 x108 + 4 x168 + 4 x228 + 4 x288 - 2 x348 <= 0
 c99:  4 x49 + 4 x109 + 4 x169 + 4 x229 + 4 x289 - 2 x349 <= 0
 c100: 4 x50 + 4 x110 + 4 x170 + 4 x230 + 4 x290 - 2 x350 <= 0
 c101: 4 x51 + 4 x111 + 4 x171 + 4 x231 + 4 x291 - 2 x351 <= 0
 c102: 4 x52 + 4 x112 + 4 x172 + 4 x232 + 4 x292 - 2 x352 <= 0
 c103: 4 x53 + 4 x113 + 4 x173 + 4 x233 + 4 x293 - 2 x353 <= 0
 c104: 4 x54 + 4 x114 + 4 x174 + 4 x234 + 4 x294 - 2 x354 <= 0
 c105: 4 x55 + 4 x115 + 4 x175 + 4 x235 + 4 x295 - 2 x355 <= 0
 c106: 4 x56 + 4 x116 + 4 x176 + 4 x236 + 4 x296 - 2 x356 <= 0
 c107: 4 x57 + 4 x117 + 4 x177 + 4 x237 + 4 x297 - 2 x357 <= 0
 c108: 4 x58 + 4 x118 + 4 x178 + 4 x238 + 4 x298 - 2 x358 <= 0
 c109: 4 x59 + 4 x119 + 4 x179 + 4 x239 + 4 x299 - 2 x359 <= 0
 c110: 4 x60 + 4 x120 + 4 x180 + 4 x240 + 4 x300 - 2 x360 <= 0
Bounds
 0 <= x1 <= 1
 0 <= x2 <= 1
 0 <= x3 <= 1
 0 <= x4 <= 1
 0 <= x5 <= 1
 0 <= x6 <= 1
 0 <= x7 <= 1
 0 <= x8 <= 1
 0 <= x9 <= 1
 0 <= x10 <= 1
 0 <= x11 <= 1
 0 <= x12 <= 1
 0 <= x13 <= 1
 0 <= x14 <= 1
 0 <= x15 <= 1
 0 <= x16 <= 1
 0 <= x17 <= 1
 0 <= x18 <= 1
 0 <= x19 <= 1
 0 <= x20 <= 1
 0 <= x21 <= 1
 0 <= x22 <= 1
 0 <= x23 <= 1
 0 <= x24 <= 1
 0 <= x25 <= 1
 0 <= x26 <= 1
 0 <= x27 <= 1
 0 <= x28 <= 1
 0 <= x29 <= 1
 0 <= x30 <= 1
 0 <= x31 <= 1
 0 <= x32 <= 1
 0 <= x33 <= 1
 0 <= x34 <= 1
 0 <= x35 <= 1
 0 <= x36 <= 1
 0 <= x37 <= 1
 0 <= x38 <= 1
 0 <= x39 <= 1
 0 <= x40 <= 1
 0 <= x41 <= 1
 0 <= x42 <= 1
 0 <= x43 <= 1
 0 <= x44 <= 1
 0 <= x45 <= 1
 0 <= x46 <= 1
 0 <= x47 <= 1
 0 <= x48 <= 1
 0 <= x49 <= 1
 0 <= x50 <= 1
 0 <= x51 <= 1
 0 <= x52 <= 1
 0 <= x53 <= 1
 0 <= x54 <= 1
 0 <= x55 <= 1
 0 <= x56 <= 1
 0 <= x57 <= 1
 0 <= x58 <= 1
 0 <= x59 <= 1
 0 <= x60 <= 1
 0 <= x61 <= 1
 0 <= x62 <= 1
 0 <= x63 <= 1
 0 <= x64 <= 1
 0 <= x65 <= 1
 0 <= x66 <= 1
 0 <= x67 <= 1
 0 <= x68 <= 1
 0 <= x69 <= 1
 0 <= x70 <= 1
 0 <= x71 <= 1
 0 <= x72 <= 1
 0 <= x73 <= 1
 0 <= x74 <= 1
 0 <= x75 <= 1
 0 <= x76 <= 1
 0 <= x77 <= 1
 0 <= x78 <= 1
 0 <= x79 <= 1
 0 <= x80 <= 1
 0 <= x81 <= 1
 0 <= x82 <= 1
 0 <= x83 <= 1
 0 <= x84 <= 1
 0 <= x85 <= 1
 0 <= x86 <= 1
 0 <= x87 <= 1
 0 <= x88 <= 1
 0 <= x89 <= 1
 0 <= x90 <= 1
 0 <= x91 <= 1
 0 <= x92 <= 1
 0 <= x93 <= 1
 0 <= x94 <= 1
 0 <= x95 <= 1
 0 <= x96 <= 1
 0 <= x97 <= 1
 0 <= x98 <= 1
 0 <= x99 <= 1
 0 <= x100 <= 1
 0 <= x101 <= 1
 0 <= x102 <= 1
 0 <= x103 <= 1
 0 <= x104 <= 1
 0 <= x105 <= 1
 0 <= x106 <= 1
 0 <= x107 <= 1
 0 <= x108 <= 1
 0 <= x109 <= 1
 0 <= x110 <= 1
 0 <= x111 <= 1
 0 <= x112 <= 1
 0 <= x113 <= 1
 0 <= x114 <= 1
 0 <= x115 <= 1
 0 <= x116 <= 1
 0 <= x117 <= 1
 0 <= x118 <= 1
 0 <= x119 <= 1
 0 <= x120 <= 1
 0 <= x121 <= 1
 0 <= x122 <= 1
 0 <= x123 <= 1
 0 <= x124 <= 1
 0 <= x125 <= 1
 0 <= x126 <= 1
 0 <= x127 <= 1
 0 <= x128 <= 1
 0 <= x129 <= 1
 0 <= x130 <= 1
 0 <= x131 <= 1
 0 <= x132 <= 1
 0 <= x133 <= 1
 0 <= x134 <= 1
 0 <= x135 <= 1
 0 <= x136 <= 1
 0 <= x137 <= 1
 0 <= x138 <= 1
 0 <= x139 <= 1
 0 <= x140 <= 1
 0 <= x141 <= 1
 0 <= x142 <= 1
 0 <= x143 <= 1
 0 <= x144 <= 1
 0 <= x145 <= 1
 0 <= x146 <= 1
 0 <= x147 <= 1
 0 <= x148 <= 1
 0 <= x149 <= 1
 0 <= x150 <= 1
 0 <= x151 <= 1
 0 <= x152 <= 1
 0 <= x153 <= 1
 0 <= x154 <= 1
 0 <= x155 <= 1
 0 <= x156 <= 1
 0 <= x157 <= 1
 0 <= x158 <= 1
 0 <= x159 <= 1
 0 <= x160 <= 1
 0 <= x161 <= 1
 0 <= x162 <= 1
 0 <= x163 <= 1
 0 <= x164 <= 1
 0 <= x165 <= 1
 0 <= x166 <= 1
 0 <= x167 <= 1
 0 <= x168 <= 1
 0 <= x169 <= 1
 0 <= x170 <= 1
 0 <= x171 <= 1
 0 <= x172 <= 1
 0 <= x173 <= 1
 0 <= x174 <= 1
 0 <= x175 <= 1
 0 <= x176 <= 1
 0 <= x177 <= 1
 0 <= x178 <= 1
 0 <= x179 <= 1
 0 <= x180 <= 1
 0 <= x181 <= 1
 0 <= x182 <= 1
 0 <= x183 <= 1
 0 <= x184 <= 1
 0 <= x185 <= 1
 0 <= x186 <= 1
 0 <= x187 <= 1
 0 <= x188 <= 1
 0 <= x189 <= 1
 0 <= x190 <= 1
 0 <= x191 <= 1
 0 <= x192 <= 1
 0 <= x193 <= 1
 0 <= x194 <= 1
 0 <= x195 <= 1
 0 <= x196 <= 1
 0 <= x197 <= 1
 0 <= x198 <= 1
 0 <= x199 <= 1
 0 <= x200 <= 1
 0 <= x201 <= 1
 0 <= x202 <= 1
 0 <= x203 <= 1
 0 <= x204 <= 1
 0 <= x205 <= 1
 0 <= x206 <= 1
 0 <= x207 <= 1
 0 <= x208 <= 1
 0 <= x209 <= 1
 0 <= x210 <= 1
 0 <= x211 <= 1
 0 <= x212 <= 1
 0 <= x213 <= 1
 0 <= x214 <= 1
 0 <= x215 <= 1
 0 <= x216 <= 1
 0 <= x217 <= 1
 0 <= x218 <= 1
 0 <= x219 <= 1
 0 <= x220 <= 1
 0 <= x221 <= 1
 0 <= x222 <= 1
 0 <= x223 <= 1
 0 <= x224 <= 1
 0 <= x225 <= 1
 0 <= x226 <= 1
 0 <= x227 <= 1
 0 <= x228 <= 1
 0 <= x229 <= 1
 0 <= x230 <= 1
 0 <= x231 <= 1
 0 <= x232 <= 1
 0 <= x233 <= 1
 0 <= x234 <= 1
 0 <= x235 <= 1
 0 <= x236 <= 1
 0 <= x237 <= 1
 0 <= x238 <= 1
 0 <= x239 <= 1
 0 <= x240 <= 1
 0 <= x241 <= 1
 0 <= x242 <= 1
 0 <= x243 <= 1
 0 <= x244 <= 1
 0 <= x245 <= 1
 0 <= x246 <= 1
 0 <= x247 <= 1
 0 <= x248 <= 1
 0 <= x249 <= 1
 0 <= x250 <= 1
 0 <= x251 <= 1
 0 <= x252 <= 1
 0 <= x253 <= 1
 0 <= x254 <= 1
 0 <= x255 <= 1
 0 <= x256 <= 1
 0 <= x257 <= 1
 0 <= x258 <= 1
 0 <= x259 <= 1
 0 <= x260 <= 1
 0 <= x261 <= 1
 0 <= x262 <= 1
 0 <= x263 <= 1
 0 <= x264 <= 1
 0 <= x265 <= 1
 0 <= x266 <= 1
 0 <= x267 <= 1
 0 <= x268 <= 1
 0 <= x269 <= 1
 0 <= x270 <= 1
 0 <= x271 <= 1
 0 <= x272 <= 1
 0 <= x273 <= 1
 0 <= x274 <= 1
 0 <= x275 <= 1
 0 <= x276 <= 1
 0 <= x277 <= 1
 0 <= x278 <= 1
 0 <= x279 <= 1
 0 <= x280 <= 1
 0 <= x281 <= 1
 0 <= x282 <= 1
 0 <= x283 <= 1
 0 <= x284 <= 1
 0 <= x285 <= 1
 0 <= x286 <= 1
 0 <= x287 <= 1
 0 <= x288 <= 1
 0 <= x289 <= 1
 0 <= x290 <= 1
 0 <= x291 <= 1
 0 <= x292 <= 1
 0 <= x293 <= 1
 0 <= x294 <= 1
 0 <= x295 <= 1
 0 <= x296 <= 1
 0 <= x297 <= 1
 0 <= x298 <= 1
 0 <= x299 <= 1
 0 <= x300 <= 1
 0 <= x301 <= 1
 0 <= x302 <= 1
 0 <= x303 <= 1
 0 <= x304 <= 1
 0 <= x305 <= 1
 0 <= x306 <= 1
 0 <= x307 <= 1
 0 <= x308 <= 1
 0 <= x309 <= 1
 0 <= x310 <= 1
 0 <= x311 <= 1
 0 <= x312 <= 1
 0 <= x313 <= 1
 0 <= x314 <= 1
 0 <= x315 <= 1
 0 <= x316 <= 1
 0 <= x317 <= 1
 0 <= x318 <= 1
 0 <= x319 <= 1
 0 <= x320 <= 1
 0 <= x321 <= 1
 0 <= x322 <= 1
 0 <= x323 <= 1
 0 <= x324 <= 1
 0 <= x325 <= 1
 0 <= x326 <= 1
 0 <= x327 <= 1
 0 <= x328 <= 1
 0 <= x329 <= 1
 0 <= x330 <= 1
 0 <= x331 <= 1
 0 <= x332 <= 1
 0 <= x333 <= 1
 0 <= x334 <= 1
 0 <= x335 <= 1
 0 <= x336 <= 1
 0 <= x337 <= 1
 0 <= x338 <= 1
 0 <= x339 <= 1
 0 <= x340 <= 1
 0 <= x341 <= 1
 0 <= x342 <= 1
 0 <= x343 <= 1
 0 <= x344 <= 1
 0 <= x345 <= 1
 0 <= x346 <= 1
 0 <= x347 <= 1
 0 <= x348 <= 1
 0 <= x349 <= 1
 0 <= x350 <= 1
 0 <= x351 <= 1
 0 <= x352 <= 1
 0 <= x353 <= 1
 0 <= x354 <= 1
 0 <= x355 <= 1
 0 <= x356 <= 1
 0 <= x357 <= 1
 0 <= x358 <= 1
 0 <= x359 <= 1
 0 <= x360 <= 1
Binaries
 x301  x302  x303  x304  x305  x306  x307  x308  x309  x310  x311  x312  x313 
 x314  x315  x316  x317  x318  x319  x320  x321  x322  x323  x324  x325  x326 
 x327  x328  x329  x330  x331  x332  x333  x334  x335  x336  x337  x338  x339 
 x340  x341  x342  x343  x344  x345  x346  x347  x348  x349  x350  x351  x352 
 x353  x354  x355  x356  x357  x358  x359  x360 
End
